;; translated from ./bv/jain_5_safe.c.vmt
;; original benchmark available at: https://es-static.fbk.eu/people/griggio/ic3ia/index.html
;; author: Alberto Griggio <griggio@fbk.eu>
(set-logic HORN)
(declare-fun state (Bool Bool Bool (_ BitVec 32) (_ BitVec 32) (_ BitVec 32)) Bool)
(assert (forall ((|x__1$main.next| (_ BitVec 32)) (|y__3$main| (_ BitVec 32)) (|y__3$main.next| (_ BitVec 32)) (|cond__6$main.next| (_ BitVec 32)) (|cond__6$main| (_ BitVec 32)) (|.PC.2| Bool) (|.PC.1| Bool) (|.PC.0| Bool) (|.PC.0.next| Bool) (|.PC.1.next| Bool) (|.PC.2.next| Bool) (|x__1$main| (_ BitVec 32))) (=> (let ((.def_15 (not .PC.2)))
(let ((.def_12 (not .PC.1)))
(let ((.def_10 (not .PC.0)))
(let ((.def_13 (and .def_10 .def_12)))
(let ((.def_16 (and .def_13 .def_15)))
.def_16))))) (state |.PC.0| |.PC.1| |.PC.2| |cond__6$main| |y__3$main| |x__1$main|))))
(assert (forall ((|x__1$main.next| (_ BitVec 32)) (|y__3$main| (_ BitVec 32)) (|y__3$main.next| (_ BitVec 32)) (|cond__6$main.next| (_ BitVec 32)) (|cond__6$main| (_ BitVec 32)) (|.PC.2| Bool) (|.PC.1| Bool) (|.PC.0| Bool) (|.PC.0.next| Bool) (|.PC.1.next| Bool) (|.PC.2.next| Bool) (|x__1$main| (_ BitVec 32))) (=> (and (state |.PC.0| |.PC.1| |.PC.2| |cond__6$main| |y__3$main| |x__1$main|) (let ((.def_80 (and .PC.0 .PC.1)))
(let ((.def_15 (not .PC.2)))
(let ((.def_81 (and .def_15 .def_80)))
(let ((.def_75 (and .PC.1.next .PC.0.next)))
(let ((.def_33 (not .PC.2.next)))
(let ((.def_76 (and .def_33 .def_75)))
(let ((.def_82 (and .def_76 .def_81)))
(let ((.def_72 (= x__1$main.next x__1$main)))
(let ((.def_71 (= y__3$main.next y__3$main)))
(let ((.def_73 (and .def_71 .def_72)))
(let ((.def_26 (= cond__6$main cond__6$main.next)))
(let ((.def_74 (and .def_26 .def_73)))
(let ((.def_77 (and .def_74 .def_76)))
(let ((.def_10 (not .PC.0)))
(let ((.def_69 (and .def_10 .PC.1)))
(let ((.def_70 (and .def_15 .def_69)))
(let ((.def_78 (and .def_70 .def_77)))
(let ((.def_50 (= cond__6$main.next (_ bv0 32))))
(let ((.def_51 (not .def_50)))
(let ((.def_48 (= x__1$main.next (_ bv30 32))))
(let ((.def_52 (and .def_48 .def_51)))
(let ((.def_53 (not .def_52)))
(let ((.def_46 (= cond__6$main.next (_ bv1 32))))
(let ((.def_49 (or .def_46 .def_48)))
(let ((.def_54 (and .def_49 .def_53)))
(let ((.def_42 (bvadd (_ bv4 32) y__3$main)))
(let ((.def_43 (= y__3$main.next .def_42)))
(let ((.def_40 (bvadd y__3$main x__1$main)))
(let ((.def_41 (= x__1$main.next .def_40)))
(let ((.def_44 (and .def_41 .def_43)))
(let ((.def_55 (and .def_44 .def_54)))
(let ((.def_65 (and .def_51 .def_55)))
(let ((.def_29 (not .PC.1.next)))
(let ((.def_31 (and .def_29 .PC.0.next)))
(let ((.def_34 (and .def_31 .def_33)))
(let ((.def_66 (and .def_34 .def_65)))
(let ((.def_12 (not .PC.1)))
(let ((.def_61 (and .PC.0 .def_12)))
(let ((.def_62 (and .def_15 .def_61)))
(let ((.def_67 (and .def_62 .def_66)))
(let ((.def_57 (not .PC.0.next)))
(let ((.def_58 (and .PC.1.next .def_57)))
(let ((.def_59 (and .def_33 .def_58)))
(let ((.def_56 (and .def_50 .def_55)))
(let ((.def_60 (and .def_56 .def_59)))
(let ((.def_63 (and .def_60 .def_62)))
(let ((.def_22 (= y__3$main.next (_ bv4 32))))
(let ((.def_19 (= x__1$main.next (_ bv0 32))))
(let ((.def_23 (and .def_19 .def_22)))
(let ((.def_27 (and .def_23 .def_26)))
(let ((.def_35 (and .def_27 .def_34)))
(let ((.def_13 (and .def_10 .def_12)))
(let ((.def_16 (and .def_13 .def_15)))
(let ((.def_36 (and .def_16 .def_35)))
(let ((.def_64 (or .def_36 .def_63)))
(let ((.def_68 (or .def_64 .def_67)))
(let ((.def_79 (or .def_68 .def_78)))
(let ((.def_83 (or .def_79 .def_82)))
.def_83))))))))))))))))))))))))))))))))))))))))))))))))))))))))))) (state |.PC.0.next| |.PC.1.next| |.PC.2.next| |cond__6$main.next| |y__3$main.next| |x__1$main.next|))))
(assert (forall ((|x__1$main.next| (_ BitVec 32)) (|y__3$main| (_ BitVec 32)) (|y__3$main.next| (_ BitVec 32)) (|cond__6$main.next| (_ BitVec 32)) (|cond__6$main| (_ BitVec 32)) (|.PC.2| Bool) (|.PC.1| Bool) (|.PC.0| Bool) (|.PC.0.next| Bool) (|.PC.1.next| Bool) (|.PC.2.next| Bool) (|x__1$main| (_ BitVec 32))) (=> (state |.PC.0| |.PC.1| |.PC.2| |cond__6$main| |y__3$main| |x__1$main|) (let ((.def_80 (and .PC.0 .PC.1)))
(let ((.def_15 (not .PC.2)))
(let ((.def_81 (and .def_15 .def_80)))
(let ((.def_84 (not .def_81)))
.def_84)))))))
(check-sat)
